
  32    4
  10   10   10   10

   0   0   0   0   0   1 2 
   2   1   0   1   1   1 3 
   5   2   1   3   0   1 4 
   4   4   0   3   7   1 5 
   2   3   4   7   0   1 6 
   9   0   4   3   4   2 31 7 
   1   4   5   2   0   1 8 
   4   0   2   7   3   1 9 
   5   4   0   3   6   1 10 
  10   3   5   4   0   2 12 11 
  10   6   5   4   0   3 20 18 13 
   1   6   0   1   2   3 20 18 14 
   6   5   0   2   8   1 14 
   3   3   0   7   6   1 15 
   2   4   0   3   3   1 16 
   9   6   2   5   0   1 17 
   2   0   3   5   2   2 24 19 
   6   0   6   4   3   2 24 19 
   2   4   1   6   0   1 21 
   5   2   3   4   0   1 21 
   3   0   4   3   3   1 22 
  10   5   0   8   6   1 23 
   4   0   5   4   4   1 25 
   2   5   5   2   0   1 25 
   6   5   0   3   4   1 26 
   5   0   7   4   4   2 30 27 
   1   0   4   4   3   1 28 
   3   0   4   5   4   1 29 
   8   0   5   5   3   1 32
   8   5   4   0   5   1 32
   6   3   5   0   3   1 32
   0   0   0   0   0   0 
